c Reduced graph for r125.5 generated by Cyril Grelier
p edge 109 3323
e 1 2
e 1 3
e 1 4
e 1 5
e 1 6
e 1 7
e 1 8
e 1 9
e 1 10
e 1 11
e 1 12
e 1 13
e 1 14
e 1 15
e 1 16
e 1 17
e 1 18
e 1 19
e 1 20
e 1 21
e 1 22
e 1 23
e 1 24
e 1 25
e 1 26
e 1 27
e 1 28
e 1 29
e 1 30
e 1 31
e 1 32
e 1 33
e 1 34
e 1 35
e 1 36
e 1 37
e 1 38
e 1 39
e 1 40
e 1 41
e 1 42
e 1 43
e 1 44
e 1 45
e 1 46
e 1 47
e 1 48
e 1 49
e 1 50
e 1 51
e 1 52
e 1 53
e 1 54
e 1 55
e 1 56
e 1 57
e 1 58
e 1 59
e 1 60
e 1 61
e 1 62
e 1 63
e 1 64
e 1 65
e 1 66
e 1 67
e 1 68
e 1 69
e 1 70
e 1 71
e 1 72
e 1 73
e 1 74
e 1 75
e 1 76
e 1 77
e 1 78
e 1 79
e 1 80
e 1 81
e 1 82
e 1 83
e 1 84
e 1 85
e 1 86
e 1 87
e 1 88
e 1 89
e 1 90
e 1 92
e 1 93
e 1 94
e 1 95
e 1 96
e 1 97
e 1 98
e 1 101
e 1 103
e 1 107
e 2 3
e 2 4
e 2 5
e 2 6
e 2 7
e 2 8
e 2 9
e 2 10
e 2 11
e 2 12
e 2 13
e 2 14
e 2 15
e 2 16
e 2 17
e 2 18
e 2 19
e 2 20
e 2 21
e 2 22
e 2 23
e 2 24
e 2 25
e 2 26
e 2 27
e 2 28
e 2 29
e 2 30
e 2 31
e 2 32
e 2 33
e 2 34
e 2 35
e 2 36
e 2 37
e 2 38
e 2 39
e 2 40
e 2 41
e 2 42
e 2 43
e 2 44
e 2 45
e 2 46
e 2 47
e 2 48
e 2 49
e 2 50
e 2 51
e 2 52
e 2 53
e 2 54
e 2 55
e 2 56
e 2 57
e 2 58
e 2 59
e 2 60
e 2 61
e 2 62
e 2 63
e 2 64
e 2 65
e 2 66
e 2 67
e 2 68
e 2 69
e 2 70
e 2 71
e 2 72
e 2 73
e 2 74
e 2 75
e 2 77
e 2 78
e 2 81
e 2 82
e 2 83
e 2 84
e 2 85
e 2 87
e 2 88
e 2 89
e 2 90
e 2 92
e 2 93
e 2 96
e 2 97
e 2 98
e 2 99
e 2 100
e 2 101
e 2 103
e 2 105
e 2 107
e 3 4
e 3 5
e 3 6
e 3 7
e 3 8
e 3 9
e 3 10
e 3 11
e 3 12
e 3 13
e 3 14
e 3 15
e 3 16
e 3 17
e 3 18
e 3 19
e 3 20
e 3 21
e 3 22
e 3 23
e 3 24
e 3 25
e 3 26
e 3 27
e 3 28
e 3 29
e 3 30
e 3 31
e 3 32
e 3 33
e 3 34
e 3 35
e 3 36
e 3 37
e 3 38
e 3 39
e 3 40
e 3 41
e 3 42
e 3 43
e 3 44
e 3 45
e 3 46
e 3 47
e 3 48
e 3 49
e 3 50
e 3 51
e 3 52
e 3 53
e 3 54
e 3 55
e 3 56
e 3 57
e 3 58
e 3 59
e 3 60
e 3 61
e 3 62
e 3 63
e 3 64
e 3 65
e 3 66
e 3 67
e 3 68
e 3 69
e 3 70
e 3 71
e 3 72
e 3 73
e 3 74
e 3 75
e 3 76
e 3 77
e 3 78
e 3 79
e 3 80
e 3 81
e 3 82
e 3 83
e 3 84
e 3 85
e 3 86
e 3 87
e 3 88
e 3 89
e 3 90
e 3 94
e 3 95
e 3 97
e 3 98
e 3 100
e 3 101
e 3 105
e 4 5
e 4 6
e 4 7
e 4 8
e 4 9
e 4 10
e 4 11
e 4 12
e 4 13
e 4 14
e 4 15
e 4 16
e 4 17
e 4 18
e 4 19
e 4 20
e 4 21
e 4 22
e 4 23
e 4 24
e 4 25
e 4 26
e 4 27
e 4 28
e 4 29
e 4 30
e 4 31
e 4 32
e 4 33
e 4 34
e 4 35
e 4 36
e 4 37
e 4 38
e 4 39
e 4 40
e 4 41
e 4 42
e 4 43
e 4 44
e 4 45
e 4 46
e 4 47
e 4 48
e 4 49
e 4 50
e 4 51
e 4 52
e 4 53
e 4 54
e 4 55
e 4 56
e 4 57
e 4 58
e 4 59
e 4 60
e 4 61
e 4 62
e 4 63
e 4 64
e 4 65
e 4 66
e 4 67
e 4 68
e 4 69
e 4 70
e 4 71
e 4 72
e 4 73
e 4 74
e 4 75
e 4 77
e 4 78
e 4 81
e 4 82
e 4 83
e 4 84
e 4 85
e 4 87
e 4 88
e 4 89
e 4 90
e 4 92
e 4 93
e 4 97
e 4 98
e 4 99
e 4 100
e 4 101
e 4 103
e 4 105
e 4 107
e 5 6
e 5 7
e 5 8
e 5 9
e 5 10
e 5 11
e 5 12
e 5 13
e 5 14
e 5 15
e 5 16
e 5 17
e 5 18
e 5 19
e 5 20
e 5 21
e 5 22
e 5 23
e 5 24
e 5 25
e 5 26
e 5 27
e 5 28
e 5 29
e 5 30
e 5 31
e 5 32
e 5 33
e 5 34
e 5 35
e 5 36
e 5 37
e 5 38
e 5 39
e 5 40
e 5 41
e 5 42
e 5 43
e 5 44
e 5 45
e 5 46
e 5 47
e 5 48
e 5 49
e 5 50
e 5 51
e 5 52
e 5 53
e 5 54
e 5 55
e 5 56
e 5 57
e 5 58
e 5 59
e 5 60
e 5 61
e 5 62
e 5 63
e 5 64
e 5 65
e 5 66
e 5 67
e 5 68
e 5 69
e 5 70
e 5 71
e 5 72
e 5 73
e 5 74
e 5 75
e 5 77
e 5 78
e 5 81
e 5 82
e 5 83
e 5 84
e 5 85
e 5 87
e 5 88
e 5 89
e 5 90
e 5 92
e 5 94
e 5 95
e 5 97
e 5 98
e 5 99
e 5 100
e 5 101
e 5 103
e 5 105
e 6 7
e 6 8
e 6 9
e 6 10
e 6 11
e 6 12
e 6 13
e 6 14
e 6 15
e 6 16
e 6 17
e 6 18
e 6 19
e 6 20
e 6 21
e 6 22
e 6 23
e 6 24
e 6 25
e 6 26
e 6 27
e 6 28
e 6 29
e 6 30
e 6 31
e 6 32
e 6 33
e 6 34
e 6 35
e 6 36
e 6 37
e 6 38
e 6 39
e 6 40
e 6 41
e 6 42
e 6 43
e 6 44
e 6 45
e 6 46
e 6 47
e 6 48
e 6 49
e 6 50
e 6 51
e 6 52
e 6 53
e 6 54
e 6 55
e 6 56
e 6 57
e 6 58
e 6 59
e 6 60
e 6 61
e 6 62
e 6 63
e 6 64
e 6 65
e 6 66
e 6 67
e 6 68
e 6 69
e 6 70
e 6 71
e 6 72
e 6 73
e 6 74
e 6 75
e 6 76
e 6 77
e 6 78
e 6 79
e 6 80
e 6 81
e 6 82
e 6 83
e 6 84
e 6 85
e 6 86
e 6 87
e 6 91
e 6 93
e 6 94
e 6 95
e 6 96
e 6 98
e 7 8
e 7 9
e 7 10
e 7 11
e 7 12
e 7 13
e 7 14
e 7 15
e 7 16
e 7 17
e 7 18
e 7 19
e 7 20
e 7 21
e 7 22
e 7 23
e 7 24
e 7 25
e 7 26
e 7 27
e 7 28
e 7 29
e 7 30
e 7 31
e 7 32
e 7 33
e 7 34
e 7 35
e 7 36
e 7 37
e 7 38
e 7 39
e 7 40
e 7 41
e 7 42
e 7 43
e 7 44
e 7 45
e 7 46
e 7 47
e 7 48
e 7 49
e 7 50
e 7 51
e 7 54
e 7 55
e 7 56
e 7 57
e 7 58
e 7 59
e 7 60
e 7 61
e 7 62
e 7 63
e 7 64
e 7 65
e 7 66
e 7 67
e 7 68
e 7 69
e 7 70
e 7 71
e 7 72
e 7 73
e 7 75
e 7 76
e 7 77
e 7 78
e 7 79
e 7 80
e 7 81
e 7 83
e 7 84
e 7 86
e 7 87
e 7 88
e 7 89
e 7 90
e 7 94
e 7 95
e 7 97
e 7 98
e 7 101
e 7 105
e 8 9
e 8 10
e 8 11
e 8 12
e 8 13
e 8 14
e 8 15
e 8 16
e 8 17
e 8 18
e 8 19
e 8 20
e 8 21
e 8 22
e 8 23
e 8 24
e 8 25
e 8 26
e 8 27
e 8 28
e 8 29
e 8 30
e 8 31
e 8 32
e 8 33
e 8 34
e 8 35
e 8 36
e 8 37
e 8 38
e 8 39
e 8 40
e 8 41
e 8 42
e 8 43
e 8 44
e 8 45
e 8 46
e 8 47
e 8 48
e 8 49
e 8 50
e 8 51
e 8 52
e 8 53
e 8 54
e 8 55
e 8 56
e 8 57
e 8 58
e 8 59
e 8 60
e 8 61
e 8 62
e 8 63
e 8 64
e 8 65
e 8 66
e 8 67
e 8 68
e 8 70
e 8 71
e 8 72
e 8 73
e 8 75
e 8 76
e 8 77
e 8 78
e 8 79
e 8 80
e 8 83
e 8 84
e 8 86
e 8 87
e 8 88
e 8 89
e 8 90
e 8 94
e 8 95
e 8 98
e 8 101
e 8 105
e 9 10
e 9 11
e 9 12
e 9 13
e 9 14
e 9 15
e 9 16
e 9 17
e 9 18
e 9 19
e 9 20
e 9 21
e 9 22
e 9 23
e 9 24
e 9 25
e 9 26
e 9 27
e 9 28
e 9 29
e 9 30
e 9 31
e 9 32
e 9 33
e 9 34
e 9 35
e 9 36
e 9 37
e 9 38
e 9 39
e 9 40
e 9 41
e 9 42
e 9 43
e 9 44
e 9 45
e 9 46
e 9 47
e 9 48
e 9 49
e 9 50
e 9 51
e 9 52
e 9 53
e 9 54
e 9 55
e 9 56
e 9 57
e 9 58
e 9 59
e 9 60
e 9 61
e 9 62
e 9 63
e 9 64
e 9 65
e 9 66
e 9 68
e 9 69
e 9 71
e 9 74
e 9 75
e 9 76
e 9 79
e 9 80
e 9 81
e 9 82
e 9 85
e 9 91
e 9 92
e 9 93
e 9 96
e 9 102
e 9 104
e 9 106
e 9 107
e 9 108
e 9 109
e 10 11
e 10 12
e 10 13
e 10 14
e 10 15
e 10 16
e 10 17
e 10 18
e 10 19
e 10 20
e 10 21
e 10 22
e 10 23
e 10 24
e 10 25
e 10 26
e 10 27
e 10 28
e 10 29
e 10 30
e 10 31
e 10 32
e 10 33
e 10 34
e 10 35
e 10 36
e 10 37
e 10 38
e 10 39
e 10 40
e 10 41
e 10 42
e 10 43
e 10 44
e 10 45
e 10 46
e 10 47
e 10 48
e 10 49
e 10 50
e 10 51
e 10 52
e 10 53
e 10 54
e 10 55
e 10 56
e 10 57
e 10 58
e 10 59
e 10 60
e 10 61
e 10 62
e 10 63
e 10 64
e 10 65
e 10 68
e 10 69
e 10 74
e 10 75
e 10 76
e 10 77
e 10 79
e 10 80
e 10 81
e 10 82
e 10 83
e 10 85
e 10 91
e 10 92
e 10 93
e 10 96
e 10 102
e 10 104
e 10 106
e 10 107
e 10 108
e 10 109
e 11 12
e 11 13
e 11 14
e 11 15
e 11 16
e 11 17
e 11 18
e 11 19
e 11 20
e 11 21
e 11 22
e 11 23
e 11 24
e 11 25
e 11 26
e 11 27
e 11 28
e 11 29
e 11 30
e 11 31
e 11 32
e 11 33
e 11 34
e 11 35
e 11 36
e 11 37
e 11 38
e 11 39
e 11 40
e 11 41
e 11 42
e 11 43
e 11 44
e 11 45
e 11 46
e 11 47
e 11 48
e 11 49
e 11 50
e 11 51
e 11 52
e 11 53
e 11 54
e 11 55
e 11 56
e 11 57
e 11 58
e 11 59
e 11 60
e 11 63
e 11 64
e 11 67
e 11 68
e 11 69
e 11 74
e 11 75
e 11 76
e 11 77
e 11 79
e 11 80
e 11 81
e 11 82
e 11 83
e 11 85
e 11 86
e 11 91
e 11 93
e 11 94
e 11 95
e 11 96
e 11 98
e 11 102
e 11 104
e 11 106
e 11 108
e 11 109
e 12 13
e 12 14
e 12 15
e 12 16
e 12 17
e 12 18
e 12 19
e 12 20
e 12 21
e 12 22
e 12 23
e 12 24
e 12 25
e 12 26
e 12 27
e 12 28
e 12 29
e 12 30
e 12 31
e 12 32
e 12 33
e 12 34
e 12 35
e 12 36
e 12 37
e 12 38
e 12 39
e 12 40
e 12 41
e 12 42
e 12 43
e 12 44
e 12 45
e 12 46
e 12 47
e 12 48
e 12 49
e 12 50
e 12 51
e 12 52
e 12 53
e 12 54
e 12 55
e 12 56
e 12 57
e 12 58
e 12 60
e 12 61
e 12 62
e 12 63
e 12 64
e 12 65
e 12 66
e 12 67
e 12 68
e 12 69
e 12 70
e 12 71
e 12 72
e 12 73
e 12 74
e 12 75
e 12 76
e 12 77
e 12 78
e 12 79
e 12 80
e 12 83
e 12 84
e 12 86
e 12 91
e 12 94
e 12 95
e 12 98
e 13 14
e 13 15
e 13 16
e 13 17
e 13 18
e 13 19
e 13 20
e 13 21
e 13 22
e 13 23
e 13 24
e 13 25
e 13 26
e 13 27
e 13 28
e 13 29
e 13 30
e 13 31
e 13 32
e 13 33
e 13 34
e 13 35
e 13 36
e 13 37
e 13 38
e 13 39
e 13 43
e 13 44
e 13 45
e 13 47
e 13 48
e 13 50
e 13 51
e 13 54
e 13 55
e 13 56
e 13 57
e 13 58
e 13 59
e 13 60
e 13 61
e 13 62
e 13 63
e 13 64
e 13 65
e 13 66
e 13 67
e 13 69
e 13 70
e 13 71
e 13 72
e 13 73
e 13 75
e 13 77
e 13 78
e 13 81
e 13 82
e 13 83
e 13 84
e 13 87
e 13 88
e 13 89
e 13 90
e 13 92
e 13 97
e 13 98
e 13 99
e 13 100
e 13 101
e 13 103
e 13 105
e 14 15
e 14 16
e 14 17
e 14 18
e 14 19
e 14 20
e 14 21
e 14 22
e 14 23
e 14 24
e 14 25
e 14 26
e 14 27
e 14 28
e 14 29
e 14 30
e 14 31
e 14 32
e 14 33
e 14 34
e 14 35
e 14 36
e 14 38
e 14 39
e 14 40
e 14 41
e 14 42
e 14 43
e 14 44
e 14 45
e 14 46
e 14 48
e 14 49
e 14 50
e 14 51
e 14 52
e 14 53
e 14 54
e 14 55
e 14 56
e 14 57
e 14 58
e 14 60
e 14 63
e 14 64
e 14 67
e 14 68
e 14 69
e 14 74
e 14 75
e 14 76
e 14 77
e 14 79
e 14 80
e 14 81
e 14 83
e 14 85
e 14 86
e 14 91
e 14 93
e 14 94
e 14 95
e 14 96
e 14 98
e 14 102
e 14 104
e 14 106
e 14 108
e 14 109
e 15 16
e 15 17
e 15 18
e 15 19
e 15 20
e 15 21
e 15 22
e 15 23
e 15 24
e 15 25
e 15 26
e 15 27
e 15 28
e 15 29
e 15 30
e 15 31
e 15 32
e 15 33
e 15 34
e 15 35
e 15 36
e 15 37
e 15 38
e 15 39
e 15 43
e 15 44
e 15 45
e 15 47
e 15 48
e 15 50
e 15 51
e 15 54
e 15 55
e 15 56
e 15 57
e 15 58
e 15 59
e 15 60
e 15 61
e 15 62
e 15 63
e 15 64
e 15 65
e 15 66
e 15 67
e 15 69
e 15 70
e 15 71
e 15 72
e 15 73
e 15 77
e 15 78
e 15 81
e 15 82
e 15 84
e 15 85
e 15 87
e 15 88
e 15 89
e 15 90
e 15 92
e 15 97
e 15 99
e 15 100
e 15 101
e 15 103
e 15 105
e 15 107
e 16 17
e 16 18
e 16 19
e 16 20
e 16 21
e 16 22
e 16 23
e 16 24
e 16 25
e 16 26
e 16 27
e 16 28
e 16 29
e 16 30
e 16 31
e 16 32
e 16 33
e 16 34
e 16 35
e 16 36
e 16 37
e 16 38
e 16 39
e 16 41
e 16 42
e 16 43
e 16 44
e 16 45
e 16 47
e 16 48
e 16 50
e 16 51
e 16 53
e 16 55
e 16 57
e 16 59
e 16 60
e 16 61
e 16 62
e 16 64
e 16 65
e 16 66
e 16 69
e 16 70
e 16 71
e 16 72
e 16 73
e 16 74
e 16 78
e 16 81
e 16 82
e 16 84
e 16 85
e 16 87
e 16 88
e 16 89
e 16 90
e 16 92
e 16 93
e 16 96
e 16 97
e 16 99
e 16 100
e 16 101
e 16 103
e 16 107
e 17 18
e 17 19
e 17 20
e 17 21
e 17 22
e 17 23
e 17 24
e 17 25
e 17 26
e 17 27
e 17 28
e 17 29
e 17 30
e 17 31
e 17 32
e 17 33
e 17 34
e 17 35
e 17 36
e 17 37
e 17 38
e 17 39
e 17 40
e 17 41
e 17 42
e 17 43
e 17 44
e 17 45
e 17 46
e 17 47
e 17 48
e 17 49
e 17 50
e 17 51
e 17 52
e 17 53
e 17 54
e 17 55
e 17 56
e 17 57
e 17 58
e 17 59
e 17 60
e 17 61
e 17 62
e 17 63
e 17 64
e 17 65
e 17 66
e 17 69
e 17 70
e 17 71
e 17 74
e 17 81
e 17 82
e 17 85
e 17 92
e 17 93
e 17 96
e 17 99
e 17 103
e 17 107
e 17 108
e 17 109
e 18 19
e 18 20
e 18 21
e 18 22
e 18 23
e 18 24
e 18 25
e 18 26
e 18 27
e 18 28
e 18 29
e 18 30
e 18 31
e 18 32
e 18 33
e 18 34
e 18 35
e 18 36
e 18 37
e 18 38
e 18 39
e 18 40
e 18 41
e 18 42
e 18 43
e 18 45
e 18 46
e 18 49
e 18 50
e 18 52
e 18 53
e 18 54
e 18 55
e 18 56
e 18 57
e 18 58
e 18 60
e 18 63
e 18 64
e 18 68
e 18 69
e 18 74
e 18 75
e 18 76
e 18 79
e 18 80
e 18 81
e 18 82
e 18 83
e 18 85
e 18 86
e 18 91
e 18 93
e 18 94
e 18 95
e 18 96
e 18 102
e 18 104
e 18 106
e 18 107
e 18 108
e 18 109
e 19 20
e 19 21
e 19 22
e 19 23
e 19 24
e 19 25
e 19 26
e 19 27
e 19 28
e 19 29
e 19 30
e 19 31
e 19 32
e 19 33
e 19 34
e 19 35
e 19 36
e 19 37
e 19 38
e 19 43
e 19 44
e 19 47
e 19 48
e 19 51
e 19 54
e 19 55
e 19 56
e 19 58
e 19 59
e 19 60
e 19 61
e 19 62
e 19 63
e 19 64
e 19 65
e 19 66
e 19 67
e 19 69
e 19 70
e 19 71
e 19 72
e 19 73
e 19 75
e 19 77
e 19 78
e 19 82
e 19 83
e 19 84
e 19 87
e 19 88
e 19 89
e 19 90
e 19 92
e 19 97
e 19 98
e 19 99
e 19 100
e 19 101
e 19 103
e 19 105
e 20 21
e 20 22
e 20 23
e 20 24
e 20 25
e 20 26
e 20 27
e 20 28
e 20 29
e 20 30
e 20 31
e 20 32
e 20 33
e 20 34
e 20 35
e 20 36
e 20 38
e 20 39
e 20 40
e 20 41
e 20 42
e 20 43
e 20 44
e 20 45
e 20 46
e 20 47
e 20 48
e 20 49
e 20 50
e 20 51
e 20 52
e 20 53
e 20 54
e 20 56
e 20 57
e 20 58
e 20 63
e 20 66
e 20 67
e 20 68
e 20 72
e 20 73
e 20 74
e 20 75
e 20 76
e 20 77
e 20 78
e 20 79
e 20 80
e 20 83
e 20 84
e 20 86
e 20 91
e 20 94
e 20 95
e 20 98
e 20 102
e 20 104
e 21 22
e 21 23
e 21 24
e 21 25
e 21 26
e 21 27
e 21 28
e 21 29
e 21 30
e 21 31
e 21 32
e 21 33
e 21 34
e 21 36
e 21 37
e 21 38
e 21 39
e 21 41
e 21 42
e 21 44
e 21 45
e 21 46
e 21 47
e 21 48
e 21 50
e 21 51
e 21 53
e 21 55
e 21 57
e 21 59
e 21 60
e 21 61
e 21 62
e 21 64
e 21 65
e 21 66
e 21 69
e 21 70
e 21 71
e 21 72
e 21 73
e 21 74
e 21 81
e 21 82
e 21 85
e 21 87
e 21 88
e 21 89
e 21 90
e 21 92
e 21 93
e 21 96
e 21 97
e 21 99
e 21 100
e 21 103
e 21 107
e 22 23
e 22 24
e 22 25
e 22 26
e 22 27
e 22 28
e 22 29
e 22 30
e 22 32
e 22 33
e 22 34
e 22 35
e 22 36
e 22 38
e 22 39
e 22 40
e 22 41
e 22 42
e 22 43
e 22 44
e 22 45
e 22 46
e 22 48
e 22 49
e 22 50
e 22 51
e 22 52
e 22 53
e 22 54
e 22 56
e 22 57
e 22 58
e 22 60
e 22 63
e 22 67
e 22 68
e 22 74
e 22 75
e 22 76
e 22 77
e 22 79
e 22 80
e 22 83
e 22 86
e 22 91
e 22 93
e 22 94
e 22 95
e 22 96
e 22 98
e 22 102
e 22 104
e 22 106
e 22 108
e 22 109
e 23 24
e 23 25
e 23 26
e 23 27
e 23 28
e 23 29
e 23 31
e 23 32
e 23 33
e 23 34
e 23 35
e 23 36
e 23 37
e 23 38
e 23 43
e 23 44
e 23 45
e 23 47
e 23 48
e 23 50
e 23 51
e 23 55
e 23 57
e 23 59
e 23 60
e 23 61
e 23 62
e 23 64
e 23 65
e 23 66
e 23 67
e 23 69
e 23 70
e 23 71
e 23 72
e 23 73
e 23 78
e 23 81
e 23 82
e 23 84
e 23 85
e 23 87
e 23 88
e 23 89
e 23 90
e 23 92
e 23 97
e 23 99
e 23 100
e 23 101
e 23 103
e 23 105
e 23 107
e 24 25
e 24 26
e 24 27
e 24 28
e 24 29
e 24 30
e 24 32
e 24 33
e 24 34
e 24 35
e 24 36
e 24 38
e 24 39
e 24 40
e 24 41
e 24 42
e 24 43
e 24 45
e 24 46
e 24 49
e 24 50
e 24 52
e 24 53
e 24 54
e 24 56
e 24 57
e 24 58
e 24 60
e 24 63
e 24 68
e 24 69
e 24 74
e 24 75
e 24 76
e 24 77
e 24 79
e 24 80
e 24 81
e 24 83
e 24 85
e 24 86
e 24 91
e 24 93
e 24 94
e 24 95
e 24 96
e 24 98
e 24 102
e 24 104
e 24 106
e 24 108
e 24 109
e 25 26
e 25 27
e 25 28
e 25 29
e 25 31
e 25 32
e 25 33
e 25 34
e 25 35
e 25 36
e 25 37
e 25 38
e 25 43
e 25 44
e 25 47
e 25 48
e 25 51
e 25 54
e 25 55
e 25 56
e 25 59
e 25 60
e 25 61
e 25 62
e 25 63
e 25 64
e 25 65
e 25 66
e 25 67
e 25 69
e 25 70
e 25 71
e 25 72
e 25 73
e 25 77
e 25 78
e 25 81
e 25 82
e 25 84
e 25 87
e 25 88
e 25 89
e 25 90
e 25 92
e 25 97
e 25 99
e 25 100
e 25 101
e 25 103
e 25 105
e 26 27
e 26 28
e 26 29
e 26 30
e 26 31
e 26 32
e 26 33
e 26 34
e 26 35
e 26 37
e 26 40
e 26 43
e 26 44
e 26 47
e 26 48
e 26 51
e 26 54
e 26 56
e 26 58
e 26 61
e 26 62
e 26 63
e 26 65
e 26 66
e 26 67
e 26 68
e 26 70
e 26 71
e 26 72
e 26 73
e 26 75
e 26 76
e 26 77
e 26 78
e 26 79
e 26 80
e 26 83
e 26 84
e 26 86
e 26 87
e 26 88
e 26 89
e 26 90
e 26 94
e 26 95
e 26 98
e 26 101
e 26 105
e 27 28
e 27 29
e 27 30
e 27 31
e 27 32
e 27 33
e 27 34
e 27 35
e 27 36
e 27 38
e 27 39
e 27 40
e 27 41
e 27 42
e 27 43
e 27 44
e 27 45
e 27 46
e 27 47
e 27 48
e 27 49
e 27 51
e 27 52
e 27 53
e 27 54
e 27 56
e 27 57
e 27 58
e 27 63
e 27 66
e 27 67
e 27 68
e 27 70
e 27 72
e 27 73
e 27 75
e 27 76
e 27 77
e 27 78
e 27 79
e 27 80
e 27 83
e 27 84
e 27 86
e 27 94
e 27 95
e 27 98
e 28 29
e 28 30
e 28 31
e 28 32
e 28 33
e 28 34
e 28 36
e 28 37
e 28 38
e 28 39
e 28 40
e 28 41
e 28 42
e 28 43
e 28 45
e 28 46
e 28 49
e 28 50
e 28 52
e 28 53
e 28 54
e 28 55
e 28 56
e 28 57
e 28 58
e 28 59
e 28 60
e 28 64
e 28 68
e 28 69
e 28 74
e 28 76
e 28 79
e 28 80
e 28 81
e 28 82
e 28 85
e 28 91
e 28 93
e 28 96
e 28 102
e 28 104
e 28 106
e 28 107
e 28 108
e 28 109
e 29 30
e 29 32
e 29 33
e 29 34
e 29 35
e 29 36
e 29 38
e 29 39
e 29 40
e 29 41
e 29 42
e 29 43
e 29 44
e 29 45
e 29 46
e 29 48
e 29 49
e 29 50
e 29 52
e 29 53
e 29 54
e 29 56
e 29 57
e 29 58
e 29 63
e 29 67
e 29 68
e 29 74
e 29 75
e 29 76
e 29 77
e 29 79
e 29 80
e 29 83
e 29 86
e 29 91
e 29 94
e 29 95
e 29 98
e 29 102
e 29 104
e 29 106
e 29 108
e 30 32
e 30 33
e 30 34
e 30 35
e 30 36
e 30 38
e 30 39
e 30 40
e 30 41
e 30 42
e 30 43
e 30 45
e 30 46
e 30 49
e 30 50
e 30 52
e 30 53
e 30 54
e 30 56
e 30 57
e 30 58
e 30 63
e 30 68
e 30 74
e 30 75
e 30 76
e 30 77
e 30 79
e 30 80
e 30 83
e 30 86
e 30 91
e 30 93
e 30 94
e 30 95
e 30 96
e 30 98
e 30 102
e 30 104
e 30 106
e 30 108
e 30 109
e 31 33
e 31 34
e 31 35
e 31 36
e 31 37
e 31 38
e 31 44
e 31 45
e 31 47
e 31 48
e 31 50
e 31 51
e 31 55
e 31 57
e 31 59
e 31 60
e 31 61
e 31 62
e 31 64
e 31 65
e 31 66
e 31 69
e 31 70
e 31 71
e 31 72
e 31 73
e 31 78
e 31 81
e 31 82
e 31 84
e 31 85
e 31 87
e 31 88
e 31 89
e 31 90
e 31 92
e 31 97
e 31 99
e 31 100
e 31 101
e 31 103
e 31 105
e 31 107
e 32 33
e 32 34
e 32 35
e 32 36
e 32 38
e 32 39
e 32 40
e 32 41
e 32 42
e 32 43
e 32 44
e 32 46
e 32 47
e 32 48
e 32 49
e 32 51
e 32 52
e 32 53
e 32 54
e 32 56
e 32 58
e 32 63
e 32 66
e 32 67
e 32 68
e 32 72
e 32 73
e 32 75
e 32 76
e 32 77
e 32 78
e 32 79
e 32 80
e 32 83
e 32 84
e 32 86
e 32 94
e 32 95
e 32 98
e 33 34
e 33 35
e 33 37
e 33 43
e 33 44
e 33 47
e 33 48
e 33 51
e 33 54
e 33 56
e 33 58
e 33 61
e 33 62
e 33 63
e 33 65
e 33 66
e 33 67
e 33 68
e 33 70
e 33 71
e 33 72
e 33 73
e 33 75
e 33 77
e 33 78
e 33 83
e 33 84
e 33 86
e 33 87
e 33 88
e 33 89
e 33 90
e 33 94
e 33 95
e 33 98
e 33 101
e 33 105
e 34 36
e 34 37
e 34 38
e 34 39
e 34 40
e 34 41
e 34 42
e 34 45
e 34 46
e 34 47
e 34 49
e 34 50
e 34 51
e 34 52
e 34 53
e 34 55
e 34 57
e 34 59
e 34 60
e 34 61
e 34 62
e 34 64
e 34 65
e 34 69
e 34 74
e 34 81
e 34 82
e 34 85
e 34 92
e 34 93
e 34 96
e 34 99
e 34 103
e 34 107
e 34 108
e 34 109
e 35 40
e 35 43
e 35 44
e 35 47
e 35 48
e 35 51
e 35 54
e 35 56
e 35 58
e 35 61
e 35 63
e 35 65
e 35 66
e 35 67
e 35 68
e 35 70
e 35 71
e 35 72
e 35 73
e 35 75
e 35 76
e 35 77
e 35 78
e 35 79
e 35 83
e 35 84
e 35 86
e 35 87
e 35 88
e 35 89
e 35 90
e 35 94
e 35 95
e 35 98
e 35 101
e 35 105
e 36 37
e 36 38
e 36 39
e 36 40
e 36 41
e 36 42
e 36 45
e 36 46
e 36 47
e 36 49
e 36 50
e 36 52
e 36 53
e 36 55
e 36 57
e 36 59
e 36 60
e 36 64
e 36 69
e 36 74
e 36 81
e 36 82
e 36 85
e 36 91
e 36 92
e 36 93
e 36 96
e 36 102
e 36 103
e 36 106
e 36 107
e 36 108
e 36 109
e 37 38
e 37 44
e 37 45
e 37 47
e 37 48
e 37 50
e 37 51
e 37 55
e 37 59
e 37 60
e 37 61
e 37 62
e 37 64
e 37 65
e 37 66
e 37 69
e 37 70
e 37 71
e 37 72
e 37 73
e 37 78
e 37 81
e 37 82
e 37 84
e 37 85
e 37 87
e 37 88
e 37 89
e 37 90
e 37 92
e 37 97
e 37 99
e 37 100
e 37 101
e 37 103
e 37 105
e 37 107
e 38 39
e 38 40
e 38 41
e 38 42
e 38 45
e 38 46
e 38 49
e 38 50
e 38 52
e 38 53
e 38 55
e 38 57
e 38 59
e 38 60
e 38 64
e 38 69
e 38 74
e 38 81
e 38 82
e 38 85
e 38 91
e 38 92
e 38 93
e 38 96
e 38 102
e 38 104
e 38 106
e 38 107
e 38 108
e 38 109
e 39 40
e 39 41
e 39 42
e 39 45
e 39 46
e 39 49
e 39 50
e 39 52
e 39 53
e 39 54
e 39 55
e 39 56
e 39 57
e 39 58
e 39 60
e 39 64
e 39 68
e 39 69
e 39 74
e 39 76
e 39 79
e 39 80
e 39 81
e 39 85
e 39 86
e 39 91
e 39 93
e 39 96
e 39 102
e 39 104
e 39 106
e 39 108
e 39 109
e 40 41
e 40 42
e 40 43
e 40 45
e 40 46
e 40 49
e 40 50
e 40 52
e 40 53
e 40 54
e 40 56
e 40 57
e 40 58
e 40 63
e 40 68
e 40 74
e 40 75
e 40 76
e 40 77
e 40 79
e 40 80
e 40 83
e 40 86
e 40 91
e 40 93
e 40 94
e 40 95
e 40 96
e 40 98
e 40 102
e 40 104
e 40 106
e 40 108
e 40 109
e 41 42
e 41 45
e 41 46
e 41 49
e 41 50
e 41 52
e 41 53
e 41 54
e 41 56
e 41 57
e 41 58
e 41 60
e 41 64
e 41 68
e 41 69
e 41 74
e 41 76
e 41 79
e 41 80
e 41 81
e 41 85
e 41 86
e 41 91
e 41 93
e 41 94
e 41 95
e 41 96
e 41 102
e 41 104
e 41 106
e 41 108
e 41 109
e 42 43
e 42 45
e 42 46
e 42 49
e 42 50
e 42 52
e 42 53
e 42 54
e 42 56
e 42 57
e 42 58
e 42 63
e 42 68
e 42 74
e 42 75
e 42 76
e 42 79
e 42 80
e 42 83
e 42 85
e 42 86
e 42 91
e 42 93
e 42 94
e 42 95
e 42 96
e 42 102
e 42 104
e 42 106
e 42 108
e 42 109
e 43 44
e 43 46
e 43 47
e 43 48
e 43 49
e 43 51
e 43 52
e 43 54
e 43 56
e 43 58
e 43 63
e 43 66
e 43 67
e 43 68
e 43 72
e 43 73
e 43 75
e 43 76
e 43 77
e 43 78
e 43 79
e 43 80
e 43 83
e 43 84
e 43 86
e 43 94
e 43 95
e 43 98
e 44 47
e 44 48
e 44 51
e 44 54
e 44 56
e 44 58
e 44 61
e 44 62
e 44 63
e 44 65
e 44 66
e 44 67
e 44 70
e 44 71
e 44 72
e 44 73
e 44 75
e 44 77
e 44 78
e 44 83
e 44 84
e 44 87
e 44 88
e 44 89
e 44 90
e 44 97
e 44 98
e 44 101
e 44 105
e 45 46
e 45 49
e 45 50
e 45 52
e 45 53
e 45 55
e 45 57
e 45 59
e 45 60
e 45 64
e 45 69
e 45 74
e 45 81
e 45 82
e 45 85
e 45 91
e 45 92
e 45 93
e 45 96
e 45 102
e 45 104
e 45 106
e 45 107
e 45 108
e 45 109
e 46 49
e 46 50
e 46 52
e 46 53
e 46 54
e 46 56
e 46 57
e 46 58
e 46 63
e 46 68
e 46 74
e 46 75
e 46 76
e 46 79
e 46 80
e 46 83
e 46 85
e 46 86
e 46 91
e 46 93
e 46 94
e 46 95
e 46 96
e 46 102
e 46 104
e 46 106
e 46 108
e 46 109
e 47 48
e 47 51
e 47 55
e 47 59
e 47 60
e 47 61
e 47 62
e 47 64
e 47 65
e 47 66
e 47 67
e 47 70
e 47 71
e 47 72
e 47 73
e 47 78
e 47 82
e 47 84
e 47 87
e 47 88
e 47 89
e 47 90
e 47 92
e 47 97
e 47 99
e 47 100
e 47 101
e 47 103
e 47 105
e 48 51
e 48 54
e 48 56
e 48 61
e 48 62
e 48 63
e 48 65
e 48 66
e 48 67
e 48 70
e 48 71
e 48 72
e 48 73
e 48 75
e 48 77
e 48 78
e 48 83
e 48 84
e 48 87
e 48 88
e 48 89
e 48 90
e 48 97
e 48 98
e 48 100
e 48 101
e 48 105
e 49 50
e 49 52
e 49 53
e 49 54
e 49 56
e 49 57
e 49 58
e 49 63
e 49 68
e 49 74
e 49 75
e 49 76
e 49 77
e 49 79
e 49 80
e 49 83
e 49 86
e 49 91
e 49 93
e 49 94
e 49 95
e 49 96
e 49 98
e 49 102
e 49 104
e 49 106
e 49 108
e 49 109
e 50 52
e 50 53
e 50 55
e 50 57
e 50 59
e 50 60
e 50 64
e 50 69
e 50 74
e 50 81
e 50 82
e 50 85
e 50 91
e 50 92
e 50 93
e 50 96
e 50 102
e 50 104
e 50 106
e 50 107
e 50 108
e 50 109
e 51 55
e 51 59
e 51 61
e 51 62
e 51 63
e 51 65
e 51 66
e 51 67
e 51 70
e 51 71
e 51 72
e 51 73
e 51 77
e 51 78
e 51 84
e 51 87
e 51 88
e 51 89
e 51 90
e 51 97
e 51 99
e 51 100
e 51 101
e 51 103
e 51 105
e 52 53
e 52 54
e 52 56
e 52 57
e 52 58
e 52 63
e 52 68
e 52 74
e 52 75
e 52 76
e 52 79
e 52 80
e 52 83
e 52 85
e 52 86
e 52 91
e 52 93
e 52 94
e 52 95
e 52 96
e 52 102
e 52 104
e 52 106
e 52 108
e 52 109
e 53 54
e 53 56
e 53 57
e 53 58
e 53 60
e 53 64
e 53 68
e 53 69
e 53 74
e 53 76
e 53 79
e 53 80
e 53 81
e 53 85
e 53 86
e 53 91
e 53 93
e 53 96
e 53 102
e 53 104
e 53 106
e 53 108
e 53 109
e 54 56
e 54 58
e 54 63
e 54 67
e 54 68
e 54 75
e 54 76
e 54 77
e 54 79
e 54 80
e 54 83
e 54 86
e 54 91
e 54 94
e 54 95
e 54 98
e 54 102
e 54 104
e 55 57
e 55 59
e 55 60
e 55 61
e 55 62
e 55 64
e 55 65
e 55 66
e 55 69
e 55 70
e 55 71
e 55 81
e 55 82
e 55 85
e 55 87
e 55 88
e 55 89
e 55 90
e 55 92
e 55 93
e 55 96
e 55 97
e 55 99
e 55 100
e 55 103
e 55 107
e 56 58
e 56 63
e 56 67
e 56 68
e 56 75
e 56 76
e 56 77
e 56 79
e 56 80
e 56 83
e 56 86
e 56 91
e 56 94
e 56 95
e 56 98
e 56 102
e 56 104
e 57 60
e 57 64
e 57 69
e 57 74
e 57 81
e 57 82
e 57 85
e 57 91
e 57 93
e 57 96
e 57 102
e 57 104
e 57 106
e 57 107
e 57 108
e 57 109
e 58 63
e 58 67
e 58 68
e 58 75
e 58 76
e 58 77
e 58 79
e 58 80
e 58 83
e 58 86
e 58 91
e 58 94
e 58 95
e 58 98
e 58 102
e 58 104
e 58 106
e 59 60
e 59 61
e 59 62
e 59 64
e 59 65
e 59 66
e 59 69
e 59 70
e 59 71
e 59 72
e 59 73
e 59 81
e 59 82
e 59 84
e 59 85
e 59 87
e 59 88
e 59 89
e 59 90
e 59 92
e 59 97
e 59 99
e 59 100
e 59 101
e 59 103
e 59 105
e 59 107
e 60 61
e 60 62
e 60 64
e 60 65
e 60 69
e 60 74
e 60 81
e 60 82
e 60 85
e 60 92
e 60 93
e 60 96
e 60 97
e 60 99
e 60 100
e 60 103
e 60 107
e 60 109
e 61 62
e 61 64
e 61 65
e 61 66
e 61 69
e 61 70
e 61 71
e 61 72
e 61 73
e 61 78
e 61 81
e 61 82
e 61 84
e 61 87
e 61 88
e 61 89
e 61 90
e 61 92
e 61 97
e 61 99
e 61 100
e 61 101
e 61 103
e 61 105
e 61 107
e 62 64
e 62 65
e 62 66
e 62 69
e 62 70
e 62 71
e 62 72
e 62 73
e 62 78
e 62 81
e 62 82
e 62 84
e 62 87
e 62 88
e 62 89
e 62 90
e 62 92
e 62 97
e 62 99
e 62 100
e 62 101
e 62 103
e 62 105
e 62 107
e 63 67
e 63 68
e 63 72
e 63 73
e 63 75
e 63 76
e 63 77
e 63 78
e 63 79
e 63 80
e 63 83
e 63 86
e 63 94
e 63 95
e 63 98
e 64 65
e 64 69
e 64 71
e 64 74
e 64 81
e 64 82
e 64 85
e 64 92
e 64 93
e 64 96
e 64 97
e 64 99
e 64 100
e 64 103
e 64 107
e 65 66
e 65 67
e 65 70
e 65 71
e 65 72
e 65 73
e 65 78
e 65 82
e 65 84
e 65 87
e 65 88
e 65 89
e 65 90
e 65 92
e 65 97
e 65 99
e 65 100
e 65 101
e 65 103
e 65 105
e 66 67
e 66 70
e 66 71
e 66 72
e 66 73
e 66 78
e 66 82
e 66 84
e 66 87
e 66 88
e 66 89
e 66 90
e 66 92
e 66 97
e 66 99
e 66 100
e 66 101
e 66 103
e 66 105
e 67 68
e 67 70
e 67 72
e 67 73
e 67 75
e 67 77
e 67 78
e 67 83
e 67 84
e 67 86
e 67 87
e 67 88
e 67 90
e 67 94
e 67 95
e 67 98
e 67 101
e 67 105
e 68 75
e 68 76
e 68 77
e 68 79
e 68 80
e 68 83
e 68 86
e 68 91
e 68 94
e 68 95
e 68 98
e 68 102
e 68 104
e 68 106
e 69 74
e 69 81
e 69 82
e 69 85
e 69 92
e 69 93
e 69 96
e 69 99
e 69 100
e 69 103
e 69 107
e 69 109
e 70 71
e 70 72
e 70 73
e 70 78
e 70 82
e 70 84
e 70 87
e 70 88
e 70 89
e 70 90
e 70 92
e 70 97
e 70 99
e 70 100
e 70 101
e 70 103
e 70 105
e 71 72
e 71 73
e 71 78
e 71 82
e 71 84
e 71 87
e 71 88
e 71 89
e 71 90
e 71 92
e 71 97
e 71 99
e 71 100
e 71 101
e 71 103
e 71 105
e 72 73
e 72 77
e 72 78
e 72 84
e 72 87
e 72 88
e 72 89
e 72 90
e 72 97
e 72 99
e 72 100
e 72 101
e 72 105
e 73 77
e 73 78
e 73 84
e 73 87
e 73 88
e 73 89
e 73 90
e 73 97
e 73 99
e 73 100
e 73 101
e 73 105
e 74 76
e 74 79
e 74 80
e 74 81
e 74 85
e 74 91
e 74 93
e 74 96
e 74 102
e 74 104
e 74 106
e 74 108
e 74 109
e 75 76
e 75 77
e 75 79
e 75 80
e 75 83
e 75 86
e 75 91
e 75 94
e 75 95
e 75 98
e 76 77
e 76 79
e 76 80
e 76 83
e 76 86
e 76 91
e 76 94
e 76 95
e 76 98
e 76 102
e 76 104
e 76 106
e 76 108
e 77 78
e 77 79
e 77 80
e 77 83
e 77 86
e 77 94
e 77 95
e 77 98
e 78 84
e 78 87
e 78 88
e 78 89
e 78 90
e 78 97
e 78 98
e 78 100
e 78 101
e 78 105
e 79 80
e 79 83
e 79 86
e 79 91
e 79 94
e 79 95
e 79 98
e 79 102
e 79 104
e 79 106
e 80 83
e 80 86
e 80 91
e 80 94
e 80 95
e 80 98
e 80 102
e 80 104
e 80 106
e 80 108
e 81 82
e 81 85
e 81 92
e 81 93
e 81 96
e 81 99
e 81 103
e 81 107
e 81 109
e 82 85
e 82 88
e 82 89
e 82 92
e 82 97
e 82 99
e 82 100
e 82 103
e 82 107
e 83 86
e 83 94
e 83 95
e 83 98
e 84 87
e 84 88
e 84 89
e 84 90
e 84 97
e 84 99
e 84 100
e 84 101
e 84 105
e 85 92
e 85 93
e 85 96
e 85 103
e 85 107
e 85 108
e 85 109
e 86 91
e 86 94
e 86 95
e 86 98
e 86 102
e 86 104
e 86 106
e 87 88
e 87 89
e 87 90
e 87 92
e 87 97
e 87 99
e 87 100
e 87 101
e 87 103
e 87 105
e 88 89
e 88 90
e 88 92
e 88 97
e 88 99
e 88 100
e 88 101
e 88 103
e 88 105
e 89 90
e 89 92
e 89 97
e 89 99
e 89 100
e 89 101
e 89 103
e 89 105
e 90 92
e 90 97
e 90 99
e 90 100
e 90 101
e 90 103
e 90 105
e 91 93
e 91 94
e 91 95
e 91 96
e 91 102
e 91 104
e 91 106
e 91 108
e 91 109
e 92 97
e 92 99
e 92 100
e 92 103
e 92 107
e 93 96
e 93 102
e 93 104
e 93 106
e 93 107
e 93 108
e 93 109
e 94 95
e 94 98
e 94 102
e 94 104
e 95 98
e 95 102
e 95 104
e 96 102
e 96 104
e 96 106
e 96 107
e 96 108
e 96 109
e 97 99
e 97 100
e 97 101
e 97 103
e 97 105
e 99 100
e 99 101
e 99 103
e 99 105
e 99 107
e 100 101
e 100 103
e 100 105
e 100 107
e 101 103
e 101 105
e 102 104
e 102 106
e 102 108
e 102 109
e 103 107
e 104 106
e 104 108
e 104 109
e 106 108
e 106 109
e 108 109
